(declare-fun i0 () Int)
(declare-fun i2 () Int)
(declare-fun v15 () Bool)
(push)
(assert false)
(check-sat)
(check-sat)
(check-sat)
(pop)
(push)
(assert (xor true v15))
(assert (xor true (= (+ i0 i0) i2)))
(check-sat)
(check-sat)
(assert (distinct true (xor (xor true v15) (= 0 i2))))
(assert (= i2 i0))
(check-sat)
(push)
(check-sat)
(check-sat)
(push)
(check-sat)
(push)
(check-sat)
(check-sat)
(pop)
(check-sat)
(pop)
(check-sat)
(pop)
(pop)
(push)
(check-sat)
